Welcome to the CBC MILP Solver 
Version: 2.10.7 
Build Date: Feb 14 2022 

command line - cbc inputs/new_tr/order/triang7_2_tiers_input.lp sec 1800 solve solu solutions/new_tr/triang7_2_tiers_input.lp (default strategy 1)
seconds was changed from 1e+100 to 1800
Continuous objective value is 260 - 0.06 seconds
Cgl0002I 474 variables fixed
Cgl0003I 0 fixed, 1 tightened bounds, 367 strengthened rows, 0 substitutions
Cgl0003I 0 fixed, 0 tightened bounds, 66 strengthened rows, 0 substitutions
Cgl0003I 0 fixed, 0 tightened bounds, 11 strengthened rows, 0 substitutions
Cgl0003I 0 fixed, 0 tightened bounds, 2 strengthened rows, 0 substitutions
Cgl0004I processed model has 1492 rows, 526 columns (526 integer (498 of which binary)) and 4896 elements
Cutoff increment increased from 1e-05 to 0.9999
Cbc0045I 1 integer variables out of 526 objects (526 integer) have cost of 1 - high priority
Cbc0045I branch on satisfied Y create fake objective Y random cost Y
Cbc0038I Initial state - 275 integers unsatisfied sum - 53.7084
Cbc0038I Pass   1: suminf.   26.51148 (161) obj. 311.45 iterations 462
Cbc0038I Pass   2: suminf.   23.94784 (155) obj. 328.061 iterations 62
Cbc0038I Pass   3: suminf.   21.30483 (152) obj. 328.099 iterations 44
Cbc0038I Pass   4: suminf.   20.42829 (147) obj. 328.156 iterations 23
Cbc0038I Pass   5: suminf.   19.93755 (146) obj. 328.159 iterations 31
Cbc0038I Pass   6: suminf.   12.72738 (103) obj. 328.16 iterations 122
Cbc0038I Pass   7: suminf.   10.41808 (100) obj. 328.159 iterations 24
Cbc0038I Pass   8: suminf.    6.34909 (76) obj. 328 iterations 78
Cbc0038I Pass   9: suminf.    6.06158 (74) obj. 328 iterations 6
Cbc0038I Pass  10: suminf.    6.06158 (74) obj. 328 iterations 1
Cbc0038I Pass  11: suminf.    0.00000 (0) obj. 329 iterations 131
Cbc0038I Solution found of 329
Cbc0038I Cleaned solution of 329
Cbc0038I Before mini branch and bound, 201 integers at bound fixed and 0 continuous
Cbc0038I Mini branch and bound did not improve solution (0.26 seconds)
Cbc0038I Round again with cutoff of 321.2
Cbc0038I Reduced cost fixing fixed 3 variables on major pass 2
Cbc0038I Pass  12: suminf.   26.51148 (161) obj. 311.45 iterations 0
Cbc0038I Pass  13: suminf.   24.13356 (157) obj. 321.2 iterations 94
Cbc0038I Pass  14: suminf.   22.58210 (156) obj. 321.2 iterations 45
Cbc0038I Pass  15: suminf.   21.85792 (152) obj. 321.2 iterations 23
Cbc0038I Pass  16: suminf.   21.24114 (147) obj. 321.2 iterations 18
Cbc0038I Pass  17: suminf.   20.07161 (152) obj. 321.2 iterations 36
Cbc0038I Pass  18: suminf.   18.14936 (125) obj. 321.2 iterations 126
Cbc0038I Pass  19: suminf.   18.54516 (134) obj. 321.2 iterations 37
Cbc0038I Pass  20: suminf.   11.33149 (111) obj. 321.2 iterations 137
Cbc0038I Pass  21: suminf.    7.55233 (95) obj. 321.2 iterations 75
Cbc0038I Pass  22: suminf.    7.11799 (97) obj. 321.2 iterations 10
Cbc0038I Pass  23: suminf.    6.97858 (96) obj. 321.2 iterations 2
Cbc0038I Pass  24: suminf.    3.09517 (56) obj. 321.2 iterations 67
Cbc0038I Pass  25: suminf.    3.00247 (60) obj. 321.2 iterations 22
Cbc0038I Pass  26: suminf.    3.81621 (48) obj. 321.2 iterations 52
Cbc0038I Pass  27: suminf.    2.14449 (47) obj. 321.2 iterations 13
Cbc0038I Pass  28: suminf.    5.68261 (73) obj. 321.2 iterations 70
Cbc0038I Pass  29: suminf.    3.97640 (45) obj. 321.2 iterations 48
Cbc0038I Pass  30: suminf.    5.83454 (60) obj. 321.2 iterations 86
Cbc0038I Pass  31: suminf.    5.28513 (56) obj. 321.2 iterations 18
Cbc0038I Pass  32: suminf.    2.99447 (20) obj. 319 iterations 65
Cbc0038I Pass  33: suminf.    1.54248 (20) obj. 321.2 iterations 16
Cbc0038I Pass  34: suminf.    3.93512 (39) obj. 321.2 iterations 61
Cbc0038I Pass  35: suminf.    1.41578 (31) obj. 321.2 iterations 25
Cbc0038I Pass  36: suminf.    7.43957 (78) obj. 321.2 iterations 127
Cbc0038I Pass  37: suminf.    7.42732 (78) obj. 321.2 iterations 6
Cbc0038I Pass  38: suminf.    6.23032 (70) obj. 321.2 iterations 249
Cbc0038I Pass  39: suminf.    2.24762 (43) obj. 321.2 iterations 72
Cbc0038I Pass  40: suminf.    2.51458 (25) obj. 321.2 iterations 66
Cbc0038I Pass  41: suminf.    2.51458 (25) obj. 321.2 iterations 9
Cbc0038I Pass  42: suminf.    3.34871 (49) obj. 321.2 iterations 187
Cbc0038I Pass  43: suminf.    1.36395 (27) obj. 321.2 iterations 32
Cbc0038I Pass  44: suminf.    9.61506 (76) obj. 321.2 iterations 209
Cbc0038I Pass  45: suminf.    7.19559 (78) obj. 321.2 iterations 22
Cbc0038I Pass  46: suminf.    5.42029 (83) obj. 321.2 iterations 74
Cbc0038I Pass  47: suminf.    7.91593 (57) obj. 321.2 iterations 136
Cbc0038I Pass  48: suminf.    1.78914 (31) obj. 321.2 iterations 75
Cbc0038I Pass  49: suminf.    7.65945 (60) obj. 321.2 iterations 127
Cbc0038I Pass  50: suminf.    1.66506 (34) obj. 321.2 iterations 87
Cbc0038I Pass  51: suminf.    4.64893 (37) obj. 319.513 iterations 97
Cbc0038I Pass  52: suminf.    1.78914 (31) obj. 321.2 iterations 60
Cbc0038I Pass  53: suminf.    7.56597 (46) obj. 321.2 iterations 88
Cbc0038I Pass  54: suminf.   31.27496 (167) obj. 321.2 iterations 361
Cbc0038I Pass  55: suminf.   20.09526 (149) obj. 321.2 iterations 169
Cbc0038I Pass  56: suminf.   19.93445 (152) obj. 321.2 iterations 29
Cbc0038I Pass  57: suminf.    9.94532 (130) obj. 321.2 iterations 63
Cbc0038I Pass  58: suminf.    9.90450 (128) obj. 321.2 iterations 21
Cbc0038I Pass  59: suminf.    8.39283 (131) obj. 321.2 iterations 37
Cbc0038I Pass  60: suminf.    8.42369 (127) obj. 321.2 iterations 7
Cbc0038I Pass  61: suminf.    7.86892 (98) obj. 321.2 iterations 57
Cbc0038I Pass  62: suminf.    7.90194 (103) obj. 321.2 iterations 13
Cbc0038I Pass  63: suminf.    9.58624 (75) obj. 321.2 iterations 129
Cbc0038I Pass  64: suminf.    9.58815 (74) obj. 321.2 iterations 3
Cbc0038I Pass  65: suminf.    5.76927 (57) obj. 321.2 iterations 58
Cbc0038I Pass  66: suminf.    5.24336 (54) obj. 321.2 iterations 20
Cbc0038I Pass  67: suminf.    9.80176 (79) obj. 321.2 iterations 124
Cbc0038I Pass  68: suminf.    6.14276 (52) obj. 321.2 iterations 56
Cbc0038I Pass  69: suminf.    8.76539 (70) obj. 321.2 iterations 175
Cbc0038I Pass  70: suminf.    7.59459 (65) obj. 321.2 iterations 48
Cbc0038I Pass  71: suminf.    5.34418 (69) obj. 321.2 iterations 112
Cbc0038I Pass  72: suminf.    5.24170 (95) obj. 321.2 iterations 31
Cbc0038I Pass  73: suminf.   13.56655 (78) obj. 321.2 iterations 153
Cbc0038I Pass  74: suminf.   14.15187 (90) obj. 321.2 iterations 45
Cbc0038I Pass  75: suminf.   13.99137 (85) obj. 321.2 iterations 11
Cbc0038I Pass  76: suminf.    5.04596 (94) obj. 321.2 iterations 155
Cbc0038I Pass  77: suminf.    5.04467 (84) obj. 321.2 iterations 69
Cbc0038I Pass  78: suminf.   12.41175 (82) obj. 321.2 iterations 231
Cbc0038I Pass  79: suminf.    7.61772 (98) obj. 321.2 iterations 98
Cbc0038I Pass  80: suminf.    8.55221 (60) obj. 321.2 iterations 114
Cbc0038I Pass  81: suminf.    7.51611 (55) obj. 321.2 iterations 41
Cbc0038I Pass  82: suminf.    6.13607 (59) obj. 321.2 iterations 19
Cbc0038I Pass  83: suminf.    6.31535 (74) obj. 321.2 iterations 50
Cbc0038I Pass  84: suminf.   10.91595 (102) obj. 321.2 iterations 147
Cbc0038I Pass  85: suminf.    5.56194 (73) obj. 321.2 iterations 74
Cbc0038I Pass  86: suminf.    5.27945 (77) obj. 321.2 iterations 28
Cbc0038I Pass  87: suminf.   10.32515 (70) obj. 321.2 iterations 156
Cbc0038I Pass  88: suminf.    5.78667 (48) obj. 321.2 iterations 48
Cbc0038I Pass  89: suminf.    4.85349 (40) obj. 321.2 iterations 148
Cbc0038I Pass  90: suminf.    1.66047 (35) obj. 321.2 iterations 19
Cbc0038I Pass  91: suminf.    1.63857 (36) obj. 321.2 iterations 41
Cbc0038I Pass  92: suminf.    3.41211 (56) obj. 321.2 iterations 199
Cbc0038I Pass  93: suminf.    1.69471 (37) obj. 321.2 iterations 34
Cbc0038I Pass  94: suminf.    2.87750 (41) obj. 321.2 iterations 82
Cbc0038I Pass  95: suminf.    2.87750 (41) obj. 321.2 iterations 11
Cbc0038I Pass  96: suminf.    5.55764 (34) obj. 321.2 iterations 60
Cbc0038I Pass  97: suminf.    3.50559 (28) obj. 321.2 iterations 58
Cbc0038I Pass  98: suminf.    4.95990 (41) obj. 321.2 iterations 119
Cbc0038I Pass  99: suminf.    1.39808 (26) obj. 321.2 iterations 44
Cbc0038I Pass 100: suminf.    8.78255 (70) obj. 321.2 iterations 177
Cbc0038I Pass 101: suminf.    7.05473 (42) obj. 321.2 iterations 20
Cbc0038I Pass 102: suminf.    6.01944 (70) obj. 321.2 iterations 71
Cbc0038I Pass 103: suminf.   13.92732 (114) obj. 321.2 iterations 275
Cbc0038I Pass 104: suminf.   12.20294 (103) obj. 321.2 iterations 12
Cbc0038I Pass 105: suminf.    7.79165 (68) obj. 321.2 iterations 179
Cbc0038I Pass 106: suminf.    6.59543 (48) obj. 321.2 iterations 67
Cbc0038I Pass 107: suminf.   11.45255 (77) obj. 321.2 iterations 72
Cbc0038I Pass 108: suminf.   10.57107 (79) obj. 321.2 iterations 29
Cbc0038I Pass 109: suminf.    7.89144 (67) obj. 321.2 iterations 45
Cbc0038I Pass 110: suminf.    6.30727 (47) obj. 321.2 iterations 66
Cbc0038I Pass 111: suminf.   20.59446 (120) obj. 321.2 iterations 251
Cbc0038I No solution found this major pass
Cbc0038I Before mini branch and bound, 101 integers at bound fixed and 0 continuous
Cbc0038I Mini branch and bound did not improve solution (0.83 seconds)
Cbc0038I After 0.83 seconds - Feasibility pump exiting with objective of 329 - took 0.66 seconds
Cbc0012I Integer solution of 329 found by feasibility pump after 0 iterations and 0 nodes (0.84 seconds)
Cbc0012I Integer solution of 307 found by DiveCoefficient after 6350 iterations and 0 nodes (2.51 seconds)
Cbc0031I 41 added rows had average density of 34.878049
Cbc0013I At root node, 41 cuts changed objective from 260 to 268.18963 in 10 passes
Cbc0014I Cut generator 0 (Probing) - 203 row cuts average 3.2 elements, 17 column cuts (17 active)  in 0.037 seconds - new frequency is 1
Cbc0014I Cut generator 1 (Gomory) - 37 row cuts average 167.7 elements, 0 column cuts (0 active)  in 0.083 seconds - new frequency is 1
Cbc0014I Cut generator 2 (Knapsack) - 0 row cuts average 0.0 elements, 0 column cuts (0 active)  in 0.008 seconds - new frequency is -100
Cbc0014I Cut generator 3 (Clique) - 0 row cuts average 0.0 elements, 0 column cuts (0 active)  in 0.003 seconds - new frequency is -100
Cbc0014I Cut generator 4 (MixedIntegerRounding2) - 0 row cuts average 0.0 elements, 0 column cuts (0 active)  in 0.006 seconds - new frequency is -100
Cbc0014I Cut generator 5 (FlowCover) - 0 row cuts average 0.0 elements, 0 column cuts (0 active)  in 0.006 seconds - new frequency is -100
Cbc0014I Cut generator 6 (TwoMirCuts) - 321 row cuts average 194.8 elements, 0 column cuts (0 active)  in 0.336 seconds - new frequency is 1
Cbc0014I Cut generator 7 (ZeroHalf) - 7 row cuts average 26.0 elements, 0 column cuts (0 active)  in 0.062 seconds - new frequency is -100
Cbc0010I After 0 nodes, 1 on tree, 307 best solution, best possible 269 (2.56 seconds)
Cbc0038I Full problem 1492 rows 526 columns, reduced to 592 rows 178 columns
Cbc0038I Full problem 1492 rows 526 columns, reduced to 548 rows 164 columns
Cbc0038I Full problem 1492 rows 526 columns, reduced to 879 rows 256 columns - 85 fixed gives 237, 58 - ok now
Cbc0038I Full problem 1492 rows 526 columns, reduced to 766 rows 225 columns - 71 fixed gives 241, 65 - ok now
Cbc0038I Full problem 1492 rows 526 columns, reduced to 368 rows 109 columns
Cbc0038I Full problem 1492 rows 526 columns, reduced to 545 rows 164 columns
Cbc0038I Full problem 1492 rows 526 columns, reduced to 274 rows 85 columns
Cbc0010I After 1000 nodes, 14 on tree, 307 best solution, best possible 292 (54.08 seconds)
Cbc0038I Full problem 1492 rows 526 columns, reduced to 533 rows 160 columns
Cbc0038I Full problem 1492 rows 526 columns, reduced to 514 rows 158 columns
Cbc0038I Full problem 1492 rows 526 columns, reduced to 790 rows 228 columns - 74 fixed gives 209, 54 - ok now
Cbc0010I After 2000 nodes, 14 on tree, 307 best solution, best possible 297 (79.89 seconds)
Cbc0010I After 3000 nodes, 16 on tree, 307 best solution, best possible 305 (99.58 seconds)
Cbc0038I Full problem 1492 rows 526 columns, reduced to 247 rows 82 columns
Cbc0016I Integer solution of 305 found by strong branching after 727130 iterations and 3204 nodes (102.50 seconds)
Cbc0001I Search completed - best objective 305, took 727130 iterations and 3204 nodes (102.51 seconds)
Cbc0032I Strong branching done 10708 times (443780 iterations), fathomed 127 nodes and fixed 491 variables
Cbc0035I Maximum depth 47, 2 variables fixed on reduced cost
Cuts at root node changed objective from 260 to 269
Probing was tried 697 times and created 53329 cuts of which 0 were active after adding rounds of cuts (1.085 seconds)
Gomory was tried 309 times and created 366 cuts of which 0 were active after adding rounds of cuts (0.409 seconds)
Knapsack was tried 10 times and created 0 cuts of which 0 were active after adding rounds of cuts (0.008 seconds)
Clique was tried 10 times and created 0 cuts of which 0 were active after adding rounds of cuts (0.003 seconds)
MixedIntegerRounding2 was tried 10 times and created 0 cuts of which 0 were active after adding rounds of cuts (0.006 seconds)
FlowCover was tried 10 times and created 0 cuts of which 0 were active after adding rounds of cuts (0.006 seconds)
TwoMirCuts was tried 309 times and created 4827 cuts of which 0 were active after adding rounds of cuts (0.668 seconds)
ZeroHalf was tried 10 times and created 7 cuts of which 0 were active after adding rounds of cuts (0.062 seconds)
ImplicationCuts was tried 77 times and created 243 cuts of which 0 were active after adding rounds of cuts (0.006 seconds)

Result - Optimal solution found

Objective value:                305.00000000
Enumerated nodes:               3204
Total iterations:               727130
Time (CPU seconds):             102.54
Time (Wallclock seconds):       104.13

Total time (CPU seconds):       102.55   (Wallclock seconds):       104.14

